1 1 0 1 0 1 1 0 1 1 0 0 
0 14 6 11 11 7 5 2 10 13 14 13 
14 0 7 6 4 10 4 10 13 2 4 3 
6 7 0 7 5 9 5 5 10 7 9 7 
11 6 7 0 8 10 2 5 11 13 2 6 
11 4 5 8 0 13 13 12 14 13 6 9 
7 10 9 10 13 0 4 10 13 11 10 2 
5 4 5 2 13 4 0 6 7 4 5 3 
2 10 5 5 12 10 6 0 7 9 2 8 
10 13 10 11 14 13 7 7 0 6 9 12 
13 2 7 13 13 11 4 9 6 0 13 9 
14 4 9 2 6 10 5 2 9 13 0 6 
13 3 7 6 9 2 3 8 12 9 6 0 
2 3
1P 8B 9P 3B 10P 2P 5B 11B 4P 7P 12B 6P = 54